(declare-fun p1x () Real)
(declare-fun p1y () Real)
(declare-fun p1z () Real)
(declare-fun dummy () Real)
(define-fun h () Real 20.0)
(assert (>= p1x 2))
(assert (>= p1y 5))
(assert (>= p1z 4))
(assert (<= p1x 16))
(assert (<= p1y 15))
(assert (<= p1z (- h 5)))
(check-sat)
(get-model)
